NAME:  test1
TYPE: AGTSP
COMMENT: gtsp tours
DIMENSION:  41
GTSP_SETS: 11
EDGE_WEIGHT_TYPE: EXPLICIT
EDGE_WEIGHT_FORMAT: FULL_MATRIX 
EDGE_WEIGHT_SECTION
999999	0	999999	999999	14378	14378	14378	14370	14370	14370	14370	14362	14367	14367	14367	14359	14394	14394	999999	999999	14364	14364	14364	14356	14384	14384	14384	14376	14374	14374	14374	14366	14364	14364	14364	14356	14365	14365	14365	14357	0
999999	999999	0	999999	14378	14378	14378	999999	14370	14370	14370	999999	14367	14367	14367	999999	14394	14394	14394	999999	14364	14364	14364	999999	14384	14384	14384	999999	14374	14374	14374	999999	14364	14364	14364	999999	14365	14365	14365	999999	0
999999	999999	999999	0	14378	14378	14378	14378	14370	14370	14370	14370	14367	14367	14367	14367	14394	14394	14394	14394	14364	14364	14364	14364	14384	14384	14384	14384	14374	14374	14374	14374	14364	14364	14364	14364	14365	14365	14365	14365	0
0	999999	999999	999999	14378	14378	14370	999999	14370	14370	14362	999999	14367	14367	14359	999999	14394	14394	14394	14386	14364	14364	14356	999999	14384	14384	14376	999999	14374	14374	14366	999999	14364	14364	14356	999999	14365	14365	14357	999999	0
14378	14378	14378	14370	999999	0	999999	999999	14374	14374	14374	14366	14372	14372	14372	14364	14363	14363	14363	14355	14356	14356	14348	999999	14371	14371	14371	14363	14386	14386	999999	999999	14397	14397	999999	999999	14398	14398	999999	999999	0
14378	14378	14378	999999	999999	999999	0	999999	14374	14374	14374	999999	14372	14372	14372	999999	14363	14363	14363	999999	14356	14356	14356	14348	14371	14371	14371	999999	14386	14386	14386	999999	14397	14397	14397	999999	14398	14398	14398	999999	0
14378	14378	14378	14378	999999	999999	999999	0	14374	14374	14374	14374	14372	14372	14372	14372	14363	14363	14363	14363	14356	14356	14356	14356	14371	14371	14371	14371	14386	14386	14386	14386	14397	14397	14397	14397	14398	14398	14398	14398	0
14378	14378	14370	999999	0	999999	999999	999999	14374	14374	14366	999999	14372	14372	14364	999999	14363	14363	14355	999999	14356	14348	999999	999999	14371	14371	14363	999999	14386	14386	14386	14378	14397	14397	14397	14389	14398	14398	14398	14390	0
14370	14370	14370	14362	14374	14374	14374	14366	999999	0	999999	999999	14387	14387	999999	999999	14377	14377	14377	14369	14370	14370	14370	14362	14358	14358	14350	999999	14353	14353	14345	999999	14375	14375	14375	14367	14374	14374	14374	14366	0
14370	14370	14370	999999	14374	14374	14374	999999	999999	999999	0	999999	14387	14387	14387	999999	14377	14377	14377	999999	14370	14370	14370	999999	14358	14358	14358	14350	14353	14353	14353	14345	14375	14375	14375	999999	14374	14374	14374	999999	0
14370	14370	14370	14370	14374	14374	14374	14374	999999	999999	999999	0	14387	14387	14387	14387	14377	14377	14377	14377	14370	14370	14370	14370	14358	14358	14358	14358	14353	14353	14353	14353	14375	14375	14375	14375	14374	14374	14374	14374	0
14370	14370	14362	999999	14374	14374	14366	999999	0	999999	999999	999999	14387	14387	14387	14379	14377	14377	14369	999999	14370	14370	14362	999999	14358	14350	999999	999999	14353	14345	999999	999999	14375	14375	14367	999999	14374	14374	14366	999999	0
14367	14367	14367	14359	14372	14372	14372	14364	14387	14387	999999	999999	999999	0	999999	999999	14394	14394	999999	999999	14362	14362	14354	999999	14394	14394	999999	999999	14395	14395	999999	999999	14388	14388	999999	999999	14390	14390	999999	999999	0
14367	14367	14367	999999	14372	14372	14372	999999	14387	14387	14387	999999	999999	999999	0	999999	14394	14394	14394	999999	14362	14362	14362	14354	14394	14394	14394	999999	14395	14395	14395	999999	14388	14388	14388	999999	14390	14390	14390	999999	0
14367	14367	14367	14367	14372	14372	14372	14372	14387	14387	14387	14387	999999	999999	999999	0	14394	14394	14394	14394	14362	14362	14362	14362	14394	14394	14394	14394	14395	14395	14395	14395	14388	14388	14388	14388	14390	14390	14390	14390	0
14367	14367	14359	999999	14372	14372	14364	999999	14387	14387	14387	14379	0	999999	999999	999999	14394	14394	14394	14386	14362	14354	999999	999999	14394	14394	14394	14386	14395	14395	14395	14387	14388	14388	14388	14380	14390	14390	14390	14382	0
14394	14394	999999	999999	14363	14363	14363	14355	14377	14377	14377	14369	14394	14394	999999	999999	999999	0	999999	999999	14375	14375	14375	14367	14364	14364	14364	14356	14388	14388	999999	999999	14408	14408	999999	999999	14408	14408	999999	999999	0
14394	14394	14394	999999	14363	14363	14363	999999	14377	14377	14377	999999	14394	14394	14394	999999	999999	999999	0	999999	14375	14375	14375	999999	14364	14364	14364	999999	14388	14388	14388	999999	14408	14408	14408	999999	14408	14408	14408	999999	0
14394	14394	14394	14394	14363	14363	14363	14363	14377	14377	14377	14377	14394	14394	14394	14394	999999	999999	999999	0	14375	14375	14375	14375	14364	14364	14364	14364	14388	14388	14388	14388	14408	14408	14408	14408	14408	14408	14408	14408	0
14394	14394	14394	14386	14363	14363	14355	999999	14377	14377	14369	999999	14394	14394	14394	14386	0	999999	999999	999999	14375	14375	14367	999999	14364	14364	14356	999999	14388	14388	14388	14380	14408	999999	999999	999999	14408	999999	999999	999999	0
14364	14364	14364	14356	14356	14356	14348	999999	14370	14370	14370	14362	14362	14362	14354	999999	14375	14375	14375	14367	999999	0	999999	999999	14374	14374	14374	14366	14380	14380	14380	14372	14385	14385	999999	999999	14386	14386	999999	999999	0
14364	14364	14364	999999	14356	14356	14356	14348	14370	14370	14370	999999	14362	14362	14362	14354	14375	14375	14375	999999	999999	999999	0	999999	14374	14374	14374	999999	14380	14380	14380	999999	14385	14385	14385	999999	14386	14386	14386	999999	0
14364	14364	14364	14364	14356	14356	14356	14356	14370	14370	14370	14370	14362	14362	14362	14362	14375	14375	14375	14375	999999	999999	999999	0	14374	14374	14374	14374	14380	14380	14380	14380	14385	14385	14385	14385	14386	14386	14386	14386	0
14364	14364	14356	999999	14356	14348	999999	999999	14370	14370	14362	999999	14362	14354	999999	999999	14375	14375	14367	999999	0	999999	999999	999999	14374	14374	14366	999999	14380	14380	14372	999999	14385	14385	14385	14377	14386	14386	14386	14378	0
14384	14384	14384	14376	14371	14371	14371	14363	14358	14358	14350	999999	14394	14394	999999	999999	14364	14364	14364	14356	14374	14374	14374	14366	999999	0	999999	999999	14367	14367	14367	14359	14391	14391	999999	999999	14391	14391	999999	999999	0
14384	14384	14384	999999	14371	14371	14371	999999	14358	14358	14358	14350	14394	14394	14394	999999	14364	14364	14364	999999	14374	14374	14374	999999	999999	999999	0	999999	14367	14367	14367	999999	14391	14391	14391	999999	14391	14391	14391	999999	0
14384	14384	14384	14384	14371	14371	14371	14371	14358	14358	14358	14358	14394	14394	14394	14394	14364	14364	14364	14364	14374	14374	14374	14374	999999	999999	999999	0	14367	14367	14367	14367	14391	14391	14391	14391	14391	14391	14391	14391	0
14384	14384	14376	999999	14371	14371	14363	999999	14358	14350	999999	999999	14394	14394	14394	14386	14364	14364	14356	999999	14374	14374	14366	999999	0	999999	999999	999999	14367	14367	14359	999999	14391	14391	14391	14383	14391	14391	14391	14383	0
14374	14374	14374	14366	14386	14386	999999	999999	14353	14353	14345	999999	14395	14395	999999	999999	14388	14388	999999	999999	14380	14380	14380	14372	14367	14367	14367	14359	999999	0	999999	999999	14370	14370	14370	14362	14369	14369	14369	14361	0
14374	14374	14374	999999	14386	14386	14386	999999	14353	14353	14353	14345	14395	14395	14395	999999	14388	14388	14388	999999	14380	14380	14380	999999	14367	14367	14367	999999	999999	999999	0	999999	14370	14370	14370	999999	14369	14369	14369	999999	0
14374	14374	14374	14374	14386	14386	14386	14386	14353	14353	14353	14353	14395	14395	14395	14395	14388	14388	14388	14388	14380	14380	14380	14380	14367	14367	14367	14367	999999	999999	999999	0	14370	14370	14370	14370	14369	14369	14369	14369	0
14374	14374	14366	999999	14386	14386	14386	14378	14353	14345	999999	999999	14395	14395	14395	14387	14388	14388	14388	14380	14380	14380	14372	999999	14367	14367	14359	999999	0	999999	999999	999999	14370	14370	14362	999999	14369	14369	14361	999999	0
14364	14364	14364	14356	14397	14397	999999	999999	14375	14375	14375	14367	14388	14388	999999	999999	14408	14408	999999	999999	14385	14385	999999	999999	14391	14391	999999	999999	14370	14370	14370	14362	999999	0	999999	999999	14344	14344	14336	999999	0
14364	14364	14364	999999	14397	14397	14397	999999	14375	14375	14375	999999	14388	14388	14388	999999	14408	14408	14408	999999	14385	14385	14385	999999	14391	14391	14391	999999	14370	14370	14370	999999	999999	999999	0	999999	14344	14344	14344	14336	0
14364	14364	14364	14364	14397	14397	14397	14397	14375	14375	14375	14375	14388	14388	14388	14388	14408	14408	14408	14408	14385	14385	14385	14385	14391	14391	14391	14391	14370	14370	14370	14370	999999	999999	999999	0	14344	14344	14344	14344	0
14364	14364	14356	999999	14397	14397	14397	14389	14375	14375	14367	999999	14388	14388	14388	14380	14408	999999	999999	999999	14385	14385	14385	14377	14391	14391	14391	14383	14370	14370	14362	999999	0	999999	999999	999999	14344	14336	999999	999999	0
14365	14365	14365	14357	14398	14398	999999	999999	14374	14374	14374	14366	14390	14390	999999	999999	14408	14408	999999	999999	14386	14386	999999	999999	14391	14391	999999	999999	14369	14369	14369	14361	14344	14344	14336	999999	999999	0	999999	999999	0
14365	14365	14365	999999	14398	14398	14398	999999	14374	14374	14374	999999	14390	14390	14390	999999	14408	14408	14408	999999	14386	14386	14386	999999	14391	14391	14391	999999	14369	14369	14369	999999	14344	14344	14344	14336	999999	999999	0	999999	0
14365	14365	14365	14365	14398	14398	14398	14398	14374	14374	14374	14374	14390	14390	14390	14390	14408	14408	14408	14408	14386	14386	14386	14386	14391	14391	14391	14391	14369	14369	14369	14369	14344	14344	14344	14344	999999	999999	999999	0	0
14365	14365	14357	999999	14398	14398	14398	14390	14374	14374	14366	999999	14390	14390	14390	14382	14408	999999	999999	999999	14386	14386	14386	14378	14391	14391	14391	14383	14369	14369	14361	999999	14344	14336	999999	999999	0	999999	999999	999999	0
14334	999999	999999	999999	14334	999999	999999	999999	14334	999999	999999	999999	14334	999999	999999	999999	14334	999999	999999	999999	14334	999999	999999	999999	14334	999999	999999	999999	14334	999999	999999	999999	14334	999999	999999	999999	14334	999999	999999	999999	999999
GTSP_SET_SECTION:
1 1 2 3 4 -1
2 5 6 7 8 -1
3 9 10 11 12 -1
4 13 14 15 16 -1
5 17 18 19 20 -1
6 21 22 23 24 -1
7 25 26 27 28 -1
8 29 30 31 32 -1
9 33 34 35 36 -1
10 37 38 39 40 -1
11 41
EOF